InboundTrucks  = 40;
OutboundTrucks = 20;
ReleaseTime    = [72,45,94,30,2,40,113,118,80,70,83,117,108,79,43,72,102,74,86,82,16,53,90,54,76,112,104,106,110,84,116,77,80,118,104,22,47,21,88,83];
UnloadTime     = [9,4,6,9,4,8,3,10,4,3,8,9,10,2,7,6,4,2,4,7,8,7,2,5,3,1,5,9,4,5,4,10,7,5,9,1,5,9,7,6];
LoadTime       = [8,4,5,5,3,6,8,7,10,2,8,4,10,9,4,6,2,8,1,6];
TransferTime   = [| 4,5,3,5,3,2,5,5,3,5,3,1,4,1,1,5,2,4,5,4 | 3,2,3,3,1,1,2,2,2,2,5,4,2,4,5,3,5,4,3,3 | 5,3,5,3,1,5,1,2,3,4,3,3,1,3,4,5,2,4,5,4 | 2,2,5,4,4,5,3,2,2,1,3,3,4,2,1,2,1,3,3,5 | 1,2,1,5,2,4,2,4,1,2,5,4,4,2,5,3,1,2,4,4 | 5,4,1,1,4,4,5,3,1,4,2,4,1,2,1,2,2,5,1,1 | 5,4,5,3,3,2,2,1,4,2,3,3,4,1,1,3,3,5,2,3 | 3,4,2,4,5,1,4,4,3,3,3,4,5,3,4,4,2,3,3,3 | 1,2,1,1,5,5,1,1,3,1,2,2,1,5,3,2,2,3,2,5 | 1,2,4,5,4,4,4,4,1,2,4,4,3,2,2,4,1,4,4,5 | 1,1,4,5,2,4,5,2,5,2,4,4,5,3,1,4,3,1,3,5 | 2,4,1,2,4,1,4,1,1,3,4,5,5,3,3,1,5,2,2,2 | 1,2,4,3,5,3,4,2,5,3,3,2,4,5,4,4,1,4,2,2 | 5,3,1,3,2,3,5,2,5,3,2,2,5,1,2,4,2,2,1,2 | 1,3,3,2,4,3,2,1,2,5,3,1,3,1,2,3,2,1,5,1 | 5,2,2,3,4,3,1,1,2,3,4,3,2,3,2,3,1,5,1,5 | 2,4,3,5,4,4,5,3,2,2,2,4,4,4,5,5,2,1,3,2 | 3,2,1,1,3,2,1,2,3,3,2,2,3,4,5,5,4,2,2,3 | 5,4,1,4,1,5,4,3,4,4,3,5,5,5,2,5,5,1,3,4 | 4,4,3,1,5,1,2,3,5,1,2,4,3,2,4,4,5,5,5,5 | 2,5,5,3,2,2,4,2,4,2,3,1,4,3,4,2,5,2,4,4 | 3,3,5,4,5,1,3,4,4,1,5,4,5,3,1,2,1,2,2,3 | 3,3,5,3,4,5,2,5,1,1,4,1,1,3,4,3,1,1,5,2 | 5,2,5,5,1,2,1,5,3,1,2,1,3,3,2,5,5,5,4,4 | 3,1,1,4,2,2,3,1,5,2,4,3,3,2,4,1,4,5,4,1 | 2,1,2,4,3,4,4,1,5,1,4,3,4,2,4,2,2,2,1,1 | 3,4,4,2,1,1,1,5,4,3,1,5,1,5,3,5,2,1,3,2 | 3,3,4,2,5,1,2,5,5,3,3,4,4,2,3,3,3,1,5,3 | 1,4,2,4,1,5,1,3,2,1,4,2,5,4,2,3,5,3,5,2 | 5,3,3,1,1,1,2,3,4,5,5,3,5,2,5,2,5,5,5,5 | 3,5,2,5,4,1,1,5,5,5,3,4,3,1,1,4,1,3,1,5 | 3,5,2,2,2,3,1,2,1,3,3,1,3,1,5,3,1,4,2,4 | 3,3,4,3,5,4,1,4,4,2,2,4,2,5,4,4,4,4,4,1 | 3,1,2,1,5,3,2,2,5,5,3,5,4,2,1,5,3,3,3,5 | 4,5,5,3,1,4,1,2,4,1,1,1,5,3,4,1,2,4,1,5 | 2,4,2,1,3,1,1,2,2,5,5,5,4,2,2,5,1,3,2,5 | 4,5,4,4,4,4,1,4,2,1,1,5,3,2,2,1,3,3,2,4 | 5,2,2,1,2,4,3,2,2,4,5,5,1,4,4,5,3,1,4,2 | 2,2,4,1,1,5,3,3,3,4,3,3,1,1,2,5,2,5,3,5 | 5,3,4,1,5,4,4,5,1,1,3,5,5,5,4,5,4,5,3,3 |];
